52246.0
10,13,23,25,30,32,37,38,48,53,60,98,121,134,146,215,216,249,254,273,281,334,347,362,373,379,382,419,421,426,446,469,473,476,480,493,494,549,573,592,599,603,610,612,657,703,708,732,736,737,739,743,770,786,821,822,824,830,836,845,855,886,914,937,945,967,986,987,989,992
